p cnf 24 192
1 4 7 10 13 16 19 22 0
2 5 8 11 14 17 20 23 0
3 6 9 12 15 18 21 24 0
-2 -1 0
-3 -1 0
-3 -2 0
-5 -4 0
-6 -4 0
-6 -5 0
-8 -7 0
-9 -7 0
-9 -8 0
-11 -10 0
-12 -10 0
-12 -11 0
-14 -13 0
-15 -13 0
-15 -14 0
-17 -16 0
-18 -16 0
-18 -17 0
-20 -19 0
-21 -19 0
-21 -20 0
-23 -22 0
-24 -22 0
-24 -23 0
-1 -4 0
-1 -7 0
-1 -10 0
-1 -13 0
-1 -16 0
-1 -19 0
-1 -22 0
-4 -7 0
-4 -10 0
-4 -13 0
-4 -16 0
-4 -19 0
-4 -22 0
-7 -10 0
-7 -13 0
-7 -16 0
-7 -19 0
-7 -22 0
-10 -13 0
-10 -16 0
-10 -19 0
-10 -22 0
-13 -16 0
-13 -19 0
-13 -22 0
-16 -19 0
-16 -22 0
-19 -22 0
-2 -5 0
-2 -8 0
-2 -11 0
-2 -14 0
-2 -17 0
-2 -20 0
-2 -23 0
-5 -8 0
-5 -11 0
-5 -14 0
-5 -17 0
-5 -20 0
-5 -23 0
-8 -11 0
-8 -14 0
-8 -17 0
-8 -20 0
-8 -23 0
-11 -14 0
-11 -17 0
-11 -20 0
-11 -23 0
-14 -17 0
-14 -20 0
-14 -23 0
-17 -20 0
-17 -23 0
-20 -23 0
-3 -6 0
-3 -9 0
-3 -12 0
-3 -15 0
-3 -18 0
-3 -21 0
-3 -24 0
-6 -9 0
-6 -12 0
-6 -15 0
-6 -18 0
-6 -21 0
-6 -24 0
-9 -12 0
-9 -15 0
-9 -18 0
-9 -21 0
-9 -24 0
-12 -15 0
-12 -18 0
-12 -21 0
-12 -24 0
-15 -18 0
-15 -21 0
-15 -24 0
-18 -21 0
-18 -24 0
-21 -24 0
-1 -7 0
-1 -8 0
-1 -9 0
-2 -7 0
-2 -8 0
-2 -9 0
-3 -7 0
-3 -8 0
-3 -9 0
-1 -16 0
-1 -17 0
-1 -18 0
-2 -16 0
-2 -17 0
-2 -18 0
-3 -16 0
-3 -17 0
-3 -18 0
-1 -22 0
-1 -23 0
-1 -24 0
-2 -22 0
-2 -23 0
-2 -24 0
-3 -22 0
-3 -23 0
-3 -24 0
-4 -22 0
-4 -23 0
-4 -24 0
-5 -22 0
-5 -23 0
-5 -24 0
-6 -22 0
-6 -23 0
-6 -24 0
-7 -13 0
-7 -14 0
-7 -15 0
-8 -13 0
-8 -14 0
-8 -15 0
-9 -13 0
-9 -14 0
-9 -15 0
-10 -16 0
-10 -17 0
-10 -18 0
-11 -16 0
-11 -17 0
-11 -18 0
-12 -16 0
-12 -17 0
-12 -18 0
-10 -19 0
-10 -20 0
-10 -21 0
-11 -19 0
-11 -20 0
-11 -21 0
-12 -19 0
-12 -20 0
-12 -21 0
-16 -22 0
-16 -23 0
-16 -24 0
-17 -22 0
-17 -23 0
-17 -24 0
-18 -22 0
-18 -23 0
-18 -24 0
-19 -22 0
-19 -23 0
-19 -24 0
-20 -22 0
-20 -23 0
-20 -24 0
-21 -22 0
-21 -23 0
-21 -24 0
